; benchmark generated from python API
(set-info :status unknown)
(declare-fun strlen_72_64 () (_ BitVec 64))
(declare-fun args_0_8 () (_ BitVec 8))
(declare-fun strlen_74_64 () (_ BitVec 64))
(declare-fun args_1_8 () (_ BitVec 8))
(declare-fun strlen_78_64 () (_ BitVec 64))
(declare-fun args_2_8 () (_ BitVec 8))
(declare-fun sigaction_oldact_174_1216 () (_ BitVec 1216))
(declare-fun sigaction_oldact_183_1216 () (_ BitVec 1216))
(declare-fun sigaction_oldact_195_1216 () (_ BitVec 1216))
(declare-fun sigaction_oldact_220_1216 () (_ BitVec 1216))
(declare-fun sigaction_oldact_267_1216 () (_ BitVec 1216))
(declare-fun sigaction_oldact_352_1216 () (_ BitVec 1216))
(declare-fun sigaction_oldact_515_1216 () (_ BitVec 1216))
(declare-fun sigaction_oldact_879_1216 () (_ BitVec 1216))
(declare-fun sigaction_oldact_1527_1216 () (_ BitVec 1216))
(declare-fun sigaction_oldact_2777_1216 () (_ BitVec 1216))
(assert
 (= (_ bv1 64) strlen_72_64))
(assert
 (let (($x69 (= (_ bv0 8) args_0_8)))
 (not $x69)))
(assert
 (let (($x190 (= (_ bv1 64) strlen_74_64)))
 (not $x190)))
(assert
 (let ((?x365 (bvadd (_ bv576460752303357826 64) strlen_74_64)))
 (let (($x347 (= (_ bv0 8) args_1_8)))
 (let ((?x355 (ite $x347 (_ bv576460752303357826 64) (_ bv576460752303357827 64))))
 (= ?x355 ?x365)))))
(assert
 (let (($x369 (= (_ bv0 8) args_2_8)))
 (let ((?x373 (ite $x369 (_ bv576460752303357828 64) (_ bv576460752303357829 64))))
 (let ((?x375 (bvsub ?x373 (_ bv576460752303357828 64))))
 (= ?x375 strlen_78_64)))))
(assert
 (let ((?x1768 ((_ extract 127 120) sigaction_oldact_174_1216)))
 (let ((?x2294 (bvand ?x1768 (_ bv4 8))))
 (and (distinct (_ bv0 8) ?x2294) true))))
(assert
 (let ((?x2603 ((_ extract 127 120) sigaction_oldact_183_1216)))
 (let ((?x2612 (bvand ?x2603 (_ bv4 8))))
 (= (_ bv0 8) ?x2612))))
(assert
 (let ((?x3286 ((_ extract 127 120) sigaction_oldact_195_1216)))
 (let ((?x3306 (bvand ?x3286 (_ bv4 8))))
 (and (distinct (_ bv0 8) ?x3306) true))))
(assert
 (let ((?x4966 ((_ extract 127 120) sigaction_oldact_220_1216)))
 (let ((?x4951 (bvand ?x4966 (_ bv4 8))))
 (= (_ bv0 8) ?x4951))))
(assert
 (let ((?x7971 ((_ extract 127 120) sigaction_oldact_267_1216)))
 (let ((?x7988 (bvand ?x7971 (_ bv4 8))))
 (= (_ bv0 8) ?x7988))))
(assert
 (let ((?x13778 ((_ extract 127 120) sigaction_oldact_352_1216)))
 (let ((?x13803 (bvand ?x13778 (_ bv4 8))))
 (= (_ bv0 8) ?x13803))))
(assert
 (let ((?x25745 ((_ extract 127 120) sigaction_oldact_515_1216)))
 (let ((?x25770 (bvand ?x25745 (_ bv4 8))))
 (and (distinct (_ bv0 8) ?x25770) true))))
(assert
 (let ((?x5008 ((_ extract 127 120) sigaction_oldact_879_1216)))
 (let ((?x50677 (bvand ?x5008 (_ bv4 8))))
 (= (_ bv0 8) ?x50677))))
(assert
 (let ((?x87524 ((_ extract 127 120) sigaction_oldact_1527_1216)))
 (let ((?x50414 (bvand ?x87524 (_ bv4 8))))
 (= (_ bv0 8) ?x50414))))
(assert
 (let ((?x158768 ((_ extract 127 120) sigaction_oldact_2777_1216)))
 (let ((?x158784 (bvand ?x158768 (_ bv4 8))))
 (= (_ bv0 8) ?x158784))))
(maximize sigaction_oldact_2777_1216)
(maximize sigaction_oldact_220_1216)
(minimize sigaction_oldact_174_1216)
(maximize strlen_78_64)
(minimize args_1_8)
(maximize sigaction_oldact_195_1216)
(minimize sigaction_oldact_352_1216)
(minimize sigaction_oldact_195_1216)
(minimize strlen_74_64)
(minimize sigaction_oldact_1527_1216)
(minimize sigaction_oldact_267_1216)
(maximize sigaction_oldact_267_1216)
(minimize strlen_78_64)
(check-sat)
(get-objectives)
